10 4
0 0 0 3.8
0 25 95 4
0 50 195 1.8
0 75 240 2.8
1 0 0 3.8
1 25 95 4
1 50 195 1.8
1 75 240 2.8
2 0 0 3.8
2 25 95 4
2 50 195 1.8
2 75 240 2.8
3 0 0 3.8
3 25 95 4
3 50 195 1.8
3 75 240 2.8
4 0 0 3.8
4 25 95 4
4 50 195 1.8
4 75 240 2.8
5 0 0 3.8
5 25 95 4
5 50 195 1.8
5 75 240 2.8
6 0 0 3.8
6 25 95 4
6 50 195 1.8
6 75 240 2.8
7 0 0 3.8
7 25 95 4
7 50 195 1.8
7 75 240 2.8
8 0 0 3.8
8 25 95 4
8 50 195 1.8
8 75 240 2.8
9 0 0 3.8
9 25 95 4
9 50 195 1.8
9 75 240 2.8
